(set-logic QF_NRA)
(declare-fun x0 () Real)
(declare-fun x1 () Real)
(declare-fun x2 () Real)
(declare-fun x3 () Real)
(declare-fun x4 () Real)
(assert (let ((.def_0 (* x4 (- 1.0)))) (let ((.def_1 (* .def_0 x4))) (let ((.def_2 (+ .def_1 1.0))) (let ((.def_3 (* (- 1.0) x4))) (let ((.def_4 (* x4 x4))) (let ((.def_5 (* .def_4 x4))) (let ((.def_6 (+ .def_5 .def_3))) (let ((.def_7 (+ .def_6 1.0))) (let ((.def_8 (< x4 0.0))) (let ((.def_9 (ite .def_8 .def_7 .def_2))) (let ((.def_10 (< x4 1.0))) (let ((.def_11 (< (- 1.0) x4))) (let ((.def_12 (and .def_11 .def_10))) (let ((.def_13 (ite .def_12 .def_9 0.0))) (let ((.def_14 (* x3 (- 1.0)))) (let ((.def_15 (* .def_14 x3))) (let ((.def_16 (+ .def_15 1.0))) (let ((.def_17 (* (- 1.0) x3))) (let ((.def_18 (* x3 x3))) (let ((.def_19 (* .def_18 x3))) (let ((.def_20 (+ .def_19 .def_17))) (let ((.def_21 (+ .def_20 1.0))) (let ((.def_22 (< x3 0.0))) (let ((.def_23 (ite .def_22 .def_21 .def_16))) (let ((.def_24 (< x3 1.0))) (let ((.def_25 (< (- 1.0) x3))) (let ((.def_26 (and .def_25 .def_24))) (let ((.def_27 (ite .def_26 .def_23 0.0))) (let ((.def_28 (* x2 (- 1.0)))) (let ((.def_29 (* .def_28 x2))) (let ((.def_30 (+ .def_29 1.0))) (let ((.def_31 (* (- 1.0) x2))) (let ((.def_32 (* x2 x2))) (let ((.def_33 (* .def_32 x2))) (let ((.def_34 (+ .def_33 .def_31))) (let ((.def_35 (+ .def_34 1.0))) (let ((.def_36 (< x2 0.0))) (let ((.def_37 (ite .def_36 .def_35 .def_30))) (let ((.def_38 (< x2 1.0))) (let ((.def_39 (< (- 1.0) x2))) (let ((.def_40 (and .def_39 .def_38))) (let ((.def_41 (ite .def_40 .def_37 0.0))) (let ((.def_42 (* x1 (- 1.0)))) (let ((.def_43 (* .def_42 x1))) (let ((.def_44 (+ .def_43 1.0))) (let ((.def_45 (* (- 1.0) x1))) (let ((.def_46 (* x1 x1))) (let ((.def_47 (* .def_46 x1))) (let ((.def_48 (+ .def_47 .def_45))) (let ((.def_49 (+ .def_48 1.0))) (let ((.def_50 (< x1 0.0))) (let ((.def_51 (ite .def_50 .def_49 .def_44))) (let ((.def_52 (< x1 1.0))) (let ((.def_53 (< (- 1.0) x1))) (let ((.def_54 (and .def_53 .def_52))) (let ((.def_55 (ite .def_54 .def_51 0.0))) (let ((.def_56 (* x0 (- 1.0)))) (let ((.def_57 (* .def_56 x0))) (let ((.def_58 (+ .def_57 1.0))) (let ((.def_59 (* (- 1.0) x0))) (let ((.def_60 (* x0 x0))) (let ((.def_61 (* .def_60 x0))) (let ((.def_62 (+ .def_61 .def_59))) (let ((.def_63 (+ .def_62 1.0))) (let ((.def_64 (< x0 0.0))) (let ((.def_65 (ite .def_64 .def_63 .def_58))) (let ((.def_66 (< x0 1.0))) (let ((.def_67 (< (- 1.0) x0))) (let ((.def_68 (and .def_67 .def_66))) (let ((.def_69 (ite .def_68 .def_65 0.0))) (let ((.def_70 (* .def_69 .def_55 .def_41 .def_27 .def_13))) .def_70))))))))))))))))))))))))))))))))))))))))))))))))))))))))))))))))))))))))
(check-sat)
